c generated by sgen
p cnf 109 228
-2 -3 -4 0
-1 -3 -4 0
-1 -2 -4 0
-1 -2 -3 0
-6 -7 -8 0
-5 -7 -8 0
-5 -6 -8 0
-5 -6 -7 0
-10 -11 -12 0
-9 -11 -12 0
-9 -10 -12 0
-9 -10 -11 0
-14 -15 -16 0
-13 -15 -16 0
-13 -14 -16 0
-13 -14 -15 0
-18 -19 -20 0
-17 -19 -20 0
-17 -18 -20 0
-17 -18 -19 0
-22 -23 -24 0
-21 -23 -24 0
-21 -22 -24 0
-21 -22 -23 0
-26 -27 -28 0
-25 -27 -28 0
-25 -26 -28 0
-25 -26 -27 0
-30 -31 -32 0
-29 -31 -32 0
-29 -30 -32 0
-29 -30 -31 0
-34 -35 -36 0
-33 -35 -36 0
-33 -34 -36 0
-33 -34 -35 0
-38 -39 -40 0
-37 -39 -40 0
-37 -38 -40 0
-37 -38 -39 0
-42 -43 -44 0
-41 -43 -44 0
-41 -42 -44 0
-41 -42 -43 0
-46 -47 -48 0
-45 -47 -48 0
-45 -46 -48 0
-45 -46 -47 0
-50 -51 -52 0
-49 -51 -52 0
-49 -50 -52 0
-49 -50 -51 0
-54 -55 -56 0
-53 -55 -56 0
-53 -54 -56 0
-53 -54 -55 0
-58 -59 -60 0
-57 -59 -60 0
-57 -58 -60 0
-57 -58 -59 0
-62 -63 -64 0
-61 -63 -64 0
-61 -62 -64 0
-61 -62 -63 0
-66 -67 -68 0
-65 -67 -68 0
-65 -66 -68 0
-65 -66 -67 0
-70 -71 -72 0
-69 -71 -72 0
-69 -70 -72 0
-69 -70 -71 0
-74 -75 -76 0
-73 -75 -76 0
-73 -74 -76 0
-73 -74 -75 0
-78 -79 -80 0
-77 -79 -80 0
-77 -78 -80 0
-77 -78 -79 0
-82 -83 -84 0
-81 -83 -84 0
-81 -82 -84 0
-81 -82 -83 0
-86 -87 -88 0
-85 -87 -88 0
-85 -86 -88 0
-85 -86 -87 0
-90 -91 -92 0
-89 -91 -92 0
-89 -90 -92 0
-89 -90 -91 0
-94 -95 -96 0
-93 -95 -96 0
-93 -94 -96 0
-93 -94 -95 0
-98 -99 -100 0
-97 -99 -100 0
-97 -98 -100 0
-97 -98 -99 0
-102 -103 -104 0
-101 -103 -104 0
-101 -102 -104 0
-101 -102 -103 0
-105 -106 -107 0
-105 -106 -108 0
-105 -106 -109 0
-105 -107 -108 0
-105 -107 -109 0
-105 -108 -109 0
-106 -107 -108 0
-106 -107 -109 0
-106 -108 -109 0
-107 -108 -109 0
79 31 42 0
65 31 42 0
65 79 42 0
65 79 31 0
83 75 16 0
23 75 16 0
23 83 16 0
23 83 75 0
108 14 45 0
30 14 45 0
30 108 45 0
30 108 14 0
39 11 5 0
88 11 5 0
88 39 5 0
88 39 11 0
54 74 9 0
105 74 9 0
105 54 9 0
105 54 74 0
12 72 95 0
4 72 95 0
4 12 95 0
4 12 72 0
52 34 40 0
1 34 40 0
1 52 40 0
1 52 34 0
10 67 27 0
17 67 27 0
17 10 27 0
17 10 67 0
57 68 103 0
2 68 103 0
2 57 103 0
2 57 68 0
38 29 102 0
93 29 102 0
93 38 102 0
93 38 29 0
15 60 62 0
53 60 62 0
53 15 62 0
53 15 60 0
101 6 51 0
100 6 51 0
100 101 51 0
100 101 6 0
58 96 84 0
98 96 84 0
98 58 84 0
98 58 96 0
70 59 80 0
50 59 80 0
50 70 80 0
50 70 59 0
41 20 48 0
56 20 48 0
56 41 48 0
56 41 20 0
37 28 76 0
46 28 76 0
46 37 76 0
46 37 28 0
32 87 24 0
18 87 24 0
18 32 24 0
18 32 87 0
71 66 13 0
35 66 13 0
35 71 13 0
35 71 66 0
55 82 78 0
90 82 78 0
90 55 78 0
90 55 82 0
99 69 107 0
86 69 107 0
86 99 107 0
86 99 69 0
22 33 7 0
94 33 7 0
94 22 7 0
94 22 33 0
85 47 92 0
63 47 92 0
63 85 92 0
63 85 47 0
21 26 61 0
3 26 61 0
3 21 61 0
3 21 26 0
49 106 91 0
43 106 91 0
43 49 91 0
43 49 106 0
109 25 104 0
77 25 104 0
77 109 104 0
77 109 25 0
8 64 44 0
81 64 44 0
81 8 44 0
81 8 64 0
36 19 97 0
36 19 89 0
36 19 73 0
36 97 89 0
36 97 73 0
36 89 73 0
19 97 89 0
19 97 73 0
19 89 73 0
97 89 73 0
